45
1 0 10
2 0 38
2 1 23
3 0 10
3 1 13
3 2 28
4 0 20
4 1 18
4 2 41
4 3 17
5 0 24
5 1 5
5 2 28
5 3 3
5 4 46
6 0 23
6 1 35
6 2 16
6 3 33
6 4 20
6 5 43
7 0 49
7 1 13
7 2 44
7 3 4
7 4 24
7 5 27
7 6 11
8 0 23
8 1 34
8 2 44
8 3 24
8 4 39
8 5 50
8 6 33
8 7 41
9 0 37
9 1 9
9 2 5
9 3 22
9 4 43
9 5 8
9 6 25
9 7 19
9 8 29
10 0 32
10 1 43
10 2 13
10 3 13
10 4 20
10 5 44
10 6 45
10 7 33
10 8 33
10 9 19
11 0 9
11 1 27
11 2 27
11 3 11
11 4 38
11 5 13
11 6 50
11 7 30
11 8 24
11 9 22
11 10 23
12 0 2
12 1 24
12 2 10
12 3 50
12 4 25
12 5 20
12 6 30
12 7 47
12 8 29
12 9 10
12 10 4
12 11 13
13 0 22
13 1 34
13 2 6
13 3 47
13 4 22
13 5 11
13 6 30
13 7 14
13 8 49
13 9 41
13 10 12
13 11 49
13 12 22
14 0 16
14 1 17
14 2 11
14 3 6
14 4 5
14 5 40
14 6 7
14 7 28
14 8 10
14 9 31
14 10 30
14 11 38
14 12 3
14 13 3
15 0 48
15 1 44
15 2 34
15 3 33
15 4 11
15 5 35
15 6 45
15 7 1
15 8 49
15 9 45
15 10 45
15 11 46
15 12 44
15 13 45
15 14 16
16 0 11
16 1 21
16 2 32
16 3 22
16 4 40
16 5 26
16 6 49
16 7 18
16 8 5
16 9 10
16 10 7
16 11 17
16 12 20
16 13 49
16 14 23
16 15 21
17 0 35
17 1 9
17 2 42
17 3 3
17 4 39
17 5 7
17 6 44
17 7 28
17 8 2
17 9 43
17 10 15
17 11 22
17 12 4
17 13 46
17 14 36
17 15 47
17 16 42
18 0 14
18 1 43
18 2 20
18 3 15
18 4 29
18 5 15
18 6 13
18 7 37
18 8 8
18 9 25
18 10 39
18 11 48
18 12 30
18 13 21
18 14 37
18 15 7
18 16 25
18 17 35
19 0 47
19 1 15
19 2 10
19 3 3
19 4 45
19 5 18
19 6 18
19 7 33
19 8 21
19 9 19
19 10 22
19 11 29
19 12 37
19 13 18
19 14 47
19 15 15
19 16 18
19 17 41
19 18 31
20 0 13
20 1 1
20 2 2
20 3 4
20 4 35
20 5 5
20 6 21
20 7 30
20 8 13
20 9 39
20 10 39
20 11 45
20 12 16
20 13 18
20 14 10
20 15 17
20 16 38
20 17 43
20 18 40
20 19 42
21 0 37
21 1 34
21 2 33
21 3 10
21 4 38
21 5 45
21 6 36
21 7 49
21 8 3
21 9 29
21 10 15
21 11 37
21 12 47
21 13 7
21 14 39
21 15 35
21 16 41
21 17 37
21 18 12
21 19 48
21 20 4
22 0 41
22 1 21
22 2 26
22 3 36
22 4 50
22 5 13
22 6 13
22 7 36
22 8 15
22 9 28
22 10 20
22 11 33
22 12 26
22 13 48
22 14 46
22 15 20
22 16 36
22 17 2
22 18 10
22 19 38
22 20 23
22 21 12
23 0 45
23 1 44
23 2 32
23 3 47
23 4 27
23 5 34
23 6 4
23 7 46
23 8 30
23 9 8
23 10 2
23 11 49
23 12 46
23 13 37
23 14 18
23 15 33
23 16 39
23 17 24
23 18 7
23 19 41
23 20 5
23 21 26
23 22 38
24 0 6
24 1 15
24 2 3
24 3 44
24 4 22
24 5 45
24 6 9
24 7 41
24 8 21
24 9 10
24 10 38
24 11 7
24 12 19
24 13 9
24 14 20
24 15 37
24 16 30
24 17 30
24 18 28
24 19 21
24 20 8
24 21 7
24 22 40
24 23 42
25 0 33
25 1 40
25 2 1
25 3 26
25 4 23
25 5 2
25 6 6
25 7 1
25 8 26
25 9 15
25 10 22
25 11 29
25 12 28
25 13 49
25 14 49
25 15 48
25 16 25
25 17 49
25 18 2
25 19 2
25 20 19
25 21 15
25 22 5
25 23 28
25 24 39
26 0 16
26 1 40
26 2 4
26 3 49
26 4 49
26 5 22
26 6 48
26 7 13
26 8 31
26 9 23
26 10 47
26 11 33
26 12 26
26 13 31
26 14 37
26 15 33
26 16 11
26 17 3
26 18 32
26 19 14
26 20 4
26 21 12
26 22 45
26 23 37
26 24 49
26 25 32
27 0 37
27 1 20
27 2 44
27 3 28
27 4 46
27 5 44
27 6 29
27 7 25
27 8 20
27 9 30
27 10 49
27 11 50
27 12 24
27 13 44
27 14 49
27 15 33
27 16 21
27 17 29
27 18 13
27 19 6
27 20 22
27 21 42
27 22 46
27 23 42
27 24 35
27 25 21
27 26 38
28 0 14
28 1 24
28 2 30
28 3 26
28 4 30
28 5 34
28 6 37
28 7 20
28 8 45
28 9 38
28 10 2
28 11 38
28 12 5
28 13 4
28 14 44
28 15 38
28 16 18
28 17 30
28 18 47
28 19 13
28 20 50
28 21 33
28 22 49
28 23 24
28 24 18
28 25 43
28 26 43
28 27 45
29 0 41
29 1 20
29 2 15
29 3 34
29 4 8
29 5 24
29 6 20
29 7 29
29 8 35
29 9 31
29 10 5
29 11 44
29 12 10
29 13 44
29 14 30
29 15 1
29 16 21
29 17 21
29 18 1
29 19 2
29 20 24
29 21 2
29 22 30
29 23 34
29 24 42
29 25 10
29 26 48
29 27 6
29 28 20
30 0 3
30 1 31
30 2 25
30 3 40
30 4 24
30 5 21
30 6 35
30 7 21
30 8 46
30 9 3
30 10 4
30 11 7
30 12 35
30 13 15
30 14 8
30 15 7
30 16 45
30 17 45
30 18 23
30 19 18
30 20 22
30 21 13
30 22 43
30 23 7
30 24 16
30 25 19
30 26 18
30 27 20
30 28 30
30 29 27
31 0 47
31 1 12
31 2 30
31 3 38
31 4 5
31 5 50
31 6 48
31 7 10
31 8 5
31 9 37
31 10 2
31 11 30
31 12 49
31 13 12
31 14 31
31 15 50
31 16 1
31 17 35
31 18 33
31 19 44
31 20 12
31 21 29
31 22 48
31 23 29
31 24 38
31 25 27
31 26 39
31 27 40
31 28 28
31 29 10
31 30 27
32 0 17
32 1 36
32 2 26
32 3 39
32 4 22
32 5 8
32 6 32
32 7 16
32 8 26
32 9 33
32 10 26
32 11 30
32 12 48
32 13 17
32 14 48
32 15 42
32 16 10
32 17 14
32 18 41
32 19 7
32 20 37
32 21 35
32 22 8
32 23 44
32 24 12
32 25 43
32 26 50
32 27 40
32 28 4
32 29 40
32 30 44
32 31 1
33 0 10
33 1 20
33 2 6
33 3 34
33 4 41
33 5 25
33 6 38
33 7 31
33 8 24
33 9 44
33 10 32
33 11 45
33 12 27
33 13 32
33 14 37
33 15 34
33 16 2
33 17 1
33 18 49
33 19 40
33 20 29
33 21 31
33 22 8
33 23 11
33 24 26
33 25 3
33 26 31
33 27 48
33 28 37
33 29 1
33 30 40
33 31 24
33 32 48
34 0 12
34 1 40
34 2 17
34 3 43
34 4 17
34 5 36
34 6 34
34 7 49
34 8 7
34 9 3
34 10 4
34 11 46
34 12 43
34 13 1
34 14 27
34 15 20
34 16 35
34 17 48
34 18 31
34 19 5
34 20 14
34 21 20
34 22 18
34 23 17
34 24 11
34 25 43
34 26 11
34 27 16
34 28 36
34 29 33
34 30 1
34 31 48
34 32 48
34 33 50
35 0 48
35 1 45
35 2 30
35 3 46
35 4 11
35 5 19
35 6 40
35 7 24
35 8 10
35 9 25
35 10 30
35 11 47
35 12 48
35 13 26
35 14 17
35 15 21
35 16 15
35 17 10
35 18 34
35 19 3
35 20 10
35 21 49
35 22 12
35 23 14
35 24 1
35 25 50
35 26 9
35 27 10
35 28 23
35 29 38
35 30 46
35 31 16
35 32 4
35 33 17
35 34 45
36 0 23
36 1 1
36 2 11
36 3 19
36 4 48
36 5 19
36 6 7
36 7 14
36 8 50
36 9 45
36 10 37
36 11 35
36 12 30
36 13 22
36 14 34
36 15 33
36 16 17
36 17 10
36 18 32
36 19 17
36 20 10
36 21 23
36 22 11
36 23 27
36 24 42
36 25 30
36 26 43
36 27 12
36 28 13
36 29 30
36 30 14
36 31 40
36 32 40
36 33 6
36 34 41
36 35 38
37 0 34
37 1 48
37 2 40
37 3 16
37 4 37
37 5 37
37 6 3
37 7 16
37 8 48
37 9 31
37 10 45
37 11 4
37 12 6
37 13 34
37 14 8
37 15 4
37 16 14
37 17 22
37 18 20
37 19 48
37 20 18
37 21 16
37 22 12
37 23 1
37 24 45
37 25 6
37 26 11
37 27 1
37 28 20
37 29 44
37 30 47
37 31 13
37 32 25
37 33 37
37 34 14
37 35 10
37 36 15
38 0 31
38 1 46
38 2 43
38 3 42
38 4 32
38 5 19
38 6 47
38 7 28
38 8 44
38 9 33
38 10 30
38 11 11
38 12 44
38 13 31
38 14 43
38 15 26
38 16 37
38 17 6
38 18 22
38 19 24
38 20 47
38 21 34
38 22 20
38 23 18
38 24 11
38 25 24
38 26 44
38 27 32
38 28 1
38 29 40
38 30 38
38 31 11
38 32 23
38 33 34
38 34 4
38 35 3
38 36 33
38 37 27
39 0 30
39 1 44
39 2 10
39 3 9
39 4 38
39 5 22
39 6 40
39 7 7
39 8 49
39 9 37
39 10 17
39 11 26
39 12 46
39 13 7
39 14 15
39 15 41
39 16 14
39 17 7
39 18 38
39 19 4
39 20 19
39 21 17
39 22 42
39 23 32
39 24 12
39 25 49
39 26 6
39 27 23
39 28 4
39 29 35
39 30 15
39 31 13
39 32 42
39 33 47
39 34 13
39 35 19
39 36 14
39 37 35
39 38 26
40 0 10
40 1 30
40 2 37
40 3 12
40 4 1
40 5 15
40 6 25
40 7 25
40 8 10
40 9 26
40 10 5
40 11 47
40 12 39
40 13 24
40 14 28
40 15 3
40 16 45
40 17 22
40 18 35
40 19 34
40 20 35
40 21 25
40 22 32
40 23 41
40 24 31
40 25 5
40 26 42
40 27 7
40 28 8
40 29 45
40 30 39
40 31 39
40 32 31
40 33 31
40 34 11
40 35 9
40 36 17
40 37 50
40 38 20
40 39 6
41 0 16
41 1 33
41 2 16
41 3 11
41 4 38
41 5 50
41 6 27
41 7 32
41 8 50
41 9 48
41 10 40
41 11 22
41 12 40
41 13 29
41 14 15
41 15 19
41 16 25
41 17 32
41 18 34
41 19 22
41 20 16
41 21 29
41 22 4
41 23 48
41 24 22
41 25 43
41 26 24
41 27 41
41 28 49
41 29 7
41 30 23
41 31 4
41 32 20
41 33 8
41 34 5
41 35 11
41 36 43
41 37 1
41 38 29
41 39 31
41 40 26
42 0 15
42 1 34
42 2 9
42 3 42
42 4 18
42 5 10
42 6 49
42 7 15
42 8 31
42 9 10
42 10 28
42 11 12
42 12 29
42 13 20
42 14 8
42 15 30
42 16 1
42 17 7
42 18 44
42 19 49
42 20 37
42 21 40
42 22 44
42 23 44
42 24 24
42 25 35
42 26 43
42 27 18
42 28 3
42 29 28
42 30 22
42 31 36
42 32 50
42 33 14
42 34 13
42 35 10
42 36 43
42 37 35
42 38 42
42 39 26
42 40 17
42 41 18
43 0 39
43 1 23
43 2 34
43 3 22
43 4 20
43 5 30
43 6 2
43 7 34
43 8 8
43 9 24
43 10 42
43 11 36
43 12 33
43 13 11
43 14 12
43 15 50
43 16 27
43 17 29
43 18 9
43 19 36
43 20 2
43 21 10
43 22 41
43 23 43
43 24 41
43 25 9
43 26 9
43 27 34
43 28 22
43 29 23
43 30 15
43 31 3
43 32 20
43 33 23
43 34 14
43 35 29
43 36 39
43 37 6
43 38 3
43 39 13
43 40 45
43 41 21
43 42 34
44 0 13
44 1 25
44 2 25
44 3 21
44 4 6
44 5 15
44 6 26
44 7 11
44 8 11
44 9 47
44 10 32
44 11 46
44 12 29
44 13 46
44 14 38
44 15 37
44 16 3
44 17 33
44 18 43
44 19 23
44 20 41
44 21 47
44 22 11
44 23 32
44 24 24
44 25 30
44 26 37
44 27 37
44 28 12
44 29 39
44 30 8
44 31 42
44 32 46
44 33 23
44 34 3
44 35 25
44 36 3
44 37 47
44 38 27
44 39 42
44 40 44
44 41 27
44 42 22
44 43 49
